(define-fun e0 () (_ BitVec 1) (_ bv0 1))
(declare-fun c1 () (_ BitVec 1))
(define-fun e2 () Bool (= e0 c1))
(define-fun e3 () (_ BitVec 48) (_ bv0 48))
(declare-fun c4 () (_ BitVec 48))
(define-fun e5 () Bool (= e3 c4))
(declare-fun c6 () (_ BitVec 48))
(define-fun e7 () Bool (= e3 c6))
(declare-fun c8 () (_ BitVec 48))
(define-fun e9 () Bool (= e3 c8))
(declare-fun c10 () (_ BitVec 48))
(define-fun e11 () Bool (= e3 c10))
(declare-fun c12 () (_ BitVec 16))
(define-fun e13 () (_ BitVec 30) ((_ zero_extend 14) c12))
(define-fun e14 () (_ BitVec 30) (_ bv65536 30))
(define-fun e15 () Bool (bvult e13 e14))
(declare-fun c16 () (_ BitVec 16))
(define-fun e17 () (_ BitVec 18) ((_ zero_extend 2) c16))
(define-fun e18 () (_ BitVec 18) (_ bv65536 18))
(define-fun e19 () Bool (bvult e17 e18))
(define-fun e20 () Bool (and e15 e19))
(define-fun e21 () Bool (and e11 e20))
(define-fun e22 () Bool (and e9 e21))
(define-fun e23 () Bool (and e7 e22))
(define-fun e24 () Bool (and e5 e23))
(define-fun e25 () Bool (and e2 e24))
(assert e25)
(define-fun e26 () (_ BitVec 16) (bvmul c16 c12))
(define-fun e27 () (_ BitVec 48) (bvneg (_ bv2 48)))
(define-fun e28 () (_ BitVec 1) (bvneg (_ bv1 1)))
(define-fun e29 () (_ BitVec 44) (_ bv5864062014805 44))
(define-fun e30 () (_ BitVec 1) ((_ extract 17 17) e17))
(define-fun e31 () (_ BitVec 19) (concat e30 e17))
(define-fun e32 () (_ BitVec 20) (concat e30 e31))
(define-fun e33 () (_ BitVec 21) (concat e30 e32))
(define-fun e34 () (_ BitVec 22) (concat e30 e33))
(define-fun e35 () (_ BitVec 23) (concat e30 e34))
(define-fun e36 () (_ BitVec 24) (concat e30 e35))
(define-fun e37 () (_ BitVec 25) (concat e30 e36))
(define-fun e38 () (_ BitVec 26) (concat e30 e37))
(define-fun e39 () (_ BitVec 27) (concat e30 e38))
(define-fun e40 () (_ BitVec 28) (concat e30 e39))
(define-fun e41 () (_ BitVec 29) (concat e30 e40))
(define-fun e42 () (_ BitVec 30) (concat e30 e41))
(define-fun e43 () (_ BitVec 31) (concat e30 e42))
(define-fun e44 () (_ BitVec 32) (concat e30 e43))
(define-fun e45 () (_ BitVec 33) (concat e30 e44))
(define-fun e46 () (_ BitVec 34) (concat e30 e45))
(define-fun e47 () (_ BitVec 35) (concat e30 e46))
(define-fun e48 () (_ BitVec 36) (concat e30 e47))
(define-fun e49 () (_ BitVec 37) (concat e30 e48))
(define-fun e50 () (_ BitVec 38) (concat e30 e49))
(define-fun e51 () (_ BitVec 39) (concat e30 e50))
(define-fun e52 () (_ BitVec 40) (concat e30 e51))
(define-fun e53 () (_ BitVec 41) (concat e30 e52))
(define-fun e54 () (_ BitVec 42) (concat e30 e53))
(define-fun e55 () (_ BitVec 43) (concat e30 e54))
(define-fun e56 () (_ BitVec 44) (concat e30 e55))
(define-fun e57 () (_ BitVec 45) (concat e30 e56))
(define-fun e58 () (_ BitVec 27) ((_ zero_extend 11) c12))
(define-fun e59 () (_ BitVec 27) (bvneg e58))
(define-fun e60 () (_ BitVec 1) ((_ extract 26 26) e59))
(define-fun e61 () (_ BitVec 28) (concat e60 e59))
(define-fun e62 () (_ BitVec 29) (concat e60 e61))
(define-fun e63 () (_ BitVec 30) (concat e60 e62))
(define-fun e64 () (_ BitVec 31) (concat e60 e63))
(define-fun e65 () (_ BitVec 32) (concat e60 e64))
(define-fun e66 () (_ BitVec 33) (concat e60 e65))
(define-fun e67 () (_ BitVec 34) (concat e60 e66))
(define-fun e68 () (_ BitVec 35) (concat e60 e67))
(define-fun e69 () (_ BitVec 36) (concat e60 e68))
(define-fun e70 () (_ BitVec 37) (concat e60 e69))
(define-fun e71 () (_ BitVec 38) (concat e60 e70))
(define-fun e72 () (_ BitVec 39) (concat e60 e71))
(define-fun e73 () (_ BitVec 40) (concat e60 e72))
(define-fun e74 () (_ BitVec 41) (concat e60 e73))
(define-fun e75 () (_ BitVec 42) (concat e60 e74))
(define-fun e76 () (_ BitVec 43) (concat e60 e75))
(define-fun e77 () (_ BitVec 44) (concat e60 e76))
(define-fun e78 () (_ BitVec 45) (concat e60 e77))
(define-fun e79 () (_ BitVec 45) (bvmul e57 e78))
(define-fun e80 () (_ BitVec 44) ((_ extract 43 0) e79))
(define-fun e81 () (_ BitVec 44) (bvand e29 e80))
(define-fun e82 () (_ BitVec 45) (concat e28 e81))
(define-fun e83 () (_ BitVec 46) (concat e28 e82))
(define-fun e84 () (_ BitVec 47) (concat e28 e83))
(define-fun e85 () (_ BitVec 48) (concat e28 e84))
(define-fun e86 () (_ BitVec 48) (bvxor e27 e85))
(define-fun e87 () (_ BitVec 3) (_ bv0 3))
(define-fun e88 () (_ BitVec 1) ((_ extract 44 44) e79))
(define-fun e89 () (_ BitVec 1) (bvnot e88))
(define-fun e90 () (_ BitVec 44) (bvneg (_ bv5864062014806 44)))
(define-fun e91 () (_ BitVec 44) (bvand e90 e80))
(define-fun e92 () (_ BitVec 45) (concat e89 e91))
(define-fun e93 () (_ BitVec 48) (concat e87 e92))
(define-fun e94 () (_ BitVec 48) (bvxor e86 e93))
(define-fun e95 () (_ BitVec 48) (bvand e85 e93))
(define-fun e96 () (_ BitVec 48) (bvand e27 e93))
(define-fun e97 () (_ BitVec 48) (bvor e95 e96))
(define-fun e98 () (_ BitVec 48) (bvand e27 e85))
(define-fun e99 () (_ BitVec 48) (bvor e97 e98))
(define-fun e100 () (_ BitVec 11) ((_ extract 46 36) e99))
(define-fun e101 () (_ BitVec 1) ((_ extract 35 35) e99))
(define-fun e102 () (_ BitVec 11) ((_ extract 34 24) e99))
(define-fun e103 () (_ BitVec 1) ((_ extract 23 23) e99))
(define-fun e104 () (_ BitVec 11) ((_ extract 22 12) e99))
(define-fun e105 () (_ BitVec 1) ((_ extract 11 11) e99))
(define-fun e106 () (_ BitVec 11) ((_ extract 10 0) e99))
(define-fun e107 () (_ BitVec 12) (concat e106 e0))
(define-fun e108 () (_ BitVec 13) (concat e105 e107))
(define-fun e109 () (_ BitVec 24) (concat e104 e108))
(define-fun e110 () (_ BitVec 25) (concat e103 e109))
(define-fun e111 () (_ BitVec 36) (concat e102 e110))
(define-fun e112 () (_ BitVec 37) (concat e101 e111))
(define-fun e113 () (_ BitVec 48) (concat e100 e112))
(define-fun e114 () (_ BitVec 48) (bvand e94 e113))
(define-fun e115 () (_ BitVec 48) (bvneg (_ bv9336279138303 48)))
(define-fun e116 () (_ BitVec 48) (bvand e115 e113))
(define-fun e117 () (_ BitVec 48) (bvor e114 e116))
(define-fun e118 () (_ BitVec 48) (bvand e115 e94))
(define-fun e119 () (_ BitVec 48) (bvor e117 e118))
(define-fun e120 () (_ BitVec 13) ((_ extract 47 35) e119))
(define-fun e121 () (_ BitVec 14) ((_ zero_extend 1) e120))
(define-fun e122 () (_ BitVec 1) ((_ extract 47 47) e99))
(define-fun e123 () (_ BitVec 48) (bvxor e94 e113))
(define-fun e124 () (_ BitVec 48) (bvxor e115 e123))
(define-fun e125 () (_ BitVec 12) ((_ extract 47 36) e124))
(define-fun e126 () (_ BitVec 13) (concat e122 e125))
(define-fun e127 () (_ BitVec 14) ((_ zero_extend 1) e126))
(define-fun e128 () (_ BitVec 14) (bvadd e121 e127))
(define-fun e129 () (_ BitVec 12) ((_ extract 34 23) e119))
(define-fun e130 () (_ BitVec 13) ((_ zero_extend 1) e129))
(define-fun e131 () (_ BitVec 12) ((_ extract 35 24) e124))
(define-fun e132 () (_ BitVec 13) ((_ zero_extend 1) e131))
(define-fun e133 () (_ BitVec 13) (bvadd e130 e132))
(define-fun e134 () (_ BitVec 12) ((_ extract 22 11) e119))
(define-fun e135 () (_ BitVec 13) ((_ zero_extend 1) e134))
(define-fun e136 () (_ BitVec 12) ((_ extract 23 12) e124))
(define-fun e137 () (_ BitVec 13) ((_ zero_extend 1) e136))
(define-fun e138 () (_ BitVec 13) (bvadd e135 e137))
(define-fun e139 () (_ BitVec 11) ((_ extract 10 0) e119))
(define-fun e140 () (_ BitVec 12) (concat e139 e0))
(define-fun e141 () (_ BitVec 13) ((_ zero_extend 1) e140))
(define-fun e142 () (_ BitVec 12) ((_ extract 11 0) e124))
(define-fun e143 () (_ BitVec 13) ((_ zero_extend 1) e142))
(define-fun e144 () (_ BitVec 13) (bvadd e141 e143))
(define-fun e145 () (_ BitVec 1) ((_ extract 12 12) e144))
(define-fun e146 () (_ BitVec 13) ((_ zero_extend 12) e145))
(define-fun e147 () (_ BitVec 13) (bvadd e138 e146))
(define-fun e148 () (_ BitVec 1) ((_ extract 12 12) e147))
(define-fun e149 () (_ BitVec 13) ((_ zero_extend 12) e148))
(define-fun e150 () (_ BitVec 13) (bvadd e133 e149))
(define-fun e151 () (_ BitVec 1) ((_ extract 12 12) e150))
(define-fun e152 () (_ BitVec 14) ((_ zero_extend 13) e151))
(define-fun e153 () (_ BitVec 14) (bvadd e128 e152))
(define-fun e154 () (_ BitVec 12) ((_ extract 11 0) e153))
(define-fun e155 () (_ BitVec 12) ((_ extract 11 0) e150))
(define-fun e156 () (_ BitVec 12) ((_ extract 11 0) e147))
(define-fun e157 () (_ BitVec 12) ((_ extract 11 0) e144))
(define-fun e158 () (_ BitVec 24) (concat e156 e157))
(define-fun e159 () (_ BitVec 36) (concat e155 e158))
(define-fun e160 () (_ BitVec 48) (concat e154 e159))
(define-fun e161 () (_ BitVec 48) (bvnot e160))
(define-fun e162 () (_ BitVec 16) ((_ extract 15 0) e161))
(define-fun e163 () Bool (= e26 e162))
(define-fun e164 () Bool (not e163))
(assert e164)
(check-sat)
